<number of tasks>
21

<cycle time>
15

<task times>
1 4
2 3
3 9
4 5
5 9
6 4
7 8
8 7
9 5
10 1
11 3
12 1
13 5
14 3
15 5
16 3
17 13
18 5
19 2
20 3
21 7

<precedence relations>
1,2
1,3
2,21
3,4
4,5
4,21
5,6
5,7
6,8
7,8
7,14
8,9
9,10
9,11
9,12
9,13
10,15
11,15
12,15
13,17
13,18
14,19
15,16
15,18
16,17
17,20
18,19

<setup times forward>
1,2:1
2,3:1
2,4:1
2,5:1
2,8:1
2,9:1
2,10:1
2,11:1
2,12:1
2,15:1
2,17:1
2,21:1
3,2:1
4,2:1
5,2:1
5,6:1
5,7:1
6,8:1
6,21:1
7,8:1
7,21:1
8,2:1
8,14:1
9,2:1
9,13:1
9,14:1
10,2:1
10,13:1
10,14:1
11,2:1
11,13:1
11,14:1
12,2:1
12,13:1
12,14:1
13,10:1
13,11:1
13,12:1
13,15:1
13,17:1
13,21:1
14,8:1
14,9:1
14,10:1
14,11:1
14,12:1
14,15:1
14,17:1
14,21:1
15,2:1
15,13:1
15,14:1
15,16:1
15,18:1
16,17:1
16,21:1
17,2:1
17,14:1
17,18:1
17,19:1
17,20:1
18,17:1
18,21:1
19,17:1
19,21:1
20,21:1
21,6:1
21,7:1
21,13:1
21,14:1
21,16:1
21,18:1
21,19:1
21,20:1

<setup times backward>
3,2:1
4,2:1
5,2:1
8,2:1
8,6:1
8,7:1
8,14:1
9,2:1
9,6:1
9,7:1
9,14:1
10,2:1
10,6:1
10,7:1
10,13:1
10,14:1
11,2:1
11,6:1
11,7:1
11,13:1
11,14:1
12,2:1
12,6:1
12,7:1
12,13:1
12,14:1
15,2:1
15,6:1
15,7:1
15,13:1
15,14:1
17,2:1
17,6:1
17,7:1
17,13:1
17,14:1
17,16:1
17,18:1
17,19:1
21,2:1
21,6:1
21,7:1
21,13:1
21,14:1
21,16:1
21,18:1
21,19:1
21,20:1

<end>

<optimal SALBP-1 value>
8


<rand seed>
467321153

<Lower Bounds>
Lm1=7
Lms1=7
Lm2=4
Lm3=6
Lm4=7
Best=7

<Optimal Stations (Iterations: 10)>
10
